c CNF file corresponding to a (partial) station packing problem.
p cnf 4383 198
1 2 3 4 5 6 7 8 9 10 11 12 13 14 0
-1 -2 0
-1 -3 0
-1 -4 0
-1 -5 0
-1 -6 0
-1 -7 0
-1 -8 0
-1 -9 0
-1 -10 0
-1 -11 0
-1 -12 0
-1 -13 0
-1 -14 0
-2 -3 0
-2 -4 0
-2 -5 0
-2 -6 0
-2 -7 0
-2 -8 0
-2 -9 0
-2 -10 0
-2 -11 0
-2 -12 0
-2 -13 0
-2 -14 0
-3 -4 0
-3 -5 0
-3 -6 0
-3 -7 0
-3 -8 0
-3 -9 0
-3 -10 0
-3 -11 0
-3 -12 0
-3 -13 0
-3 -14 0
-4 -5 0
-4 -6 0
-4 -7 0
-4 -8 0
-4 -9 0
-4 -10 0
-4 -11 0
-4 -12 0
-4 -13 0
-4 -14 0
-5 -6 0
-5 -7 0
-5 -8 0
-5 -9 0
-5 -10 0
-5 -11 0
-5 -12 0
-5 -13 0
-5 -14 0
-6 -7 0
-6 -8 0
-6 -9 0
-6 -10 0
-6 -11 0
-6 -12 0
-6 -13 0
-6 -14 0
-7 -8 0
-7 -9 0
-7 -10 0
-7 -11 0
-7 -12 0
-7 -13 0
-7 -14 0
-8 -9 0
-8 -10 0
-8 -11 0
-8 -12 0
-8 -13 0
-8 -14 0
-9 -10 0
-9 -11 0
-9 -12 0
-9 -13 0
-9 -14 0
-10 -11 0
-10 -12 0
-10 -13 0
-10 -14 0
-11 -12 0
-11 -13 0
-11 -14 0
-12 -13 0
-12 -14 0
-13 -14 0
4369 4370 4371 4372 4373 4374 4375 4376 4377 4378 4379 4380 4381 4382 4383 0
-4369 -4370 0
-4369 -4371 0
-4369 -4372 0
-4369 -4373 0
-4369 -4374 0
-4369 -4375 0
-4369 -4376 0
-4369 -4377 0
-4369 -4378 0
-4369 -4379 0
-4369 -4380 0
-4369 -4381 0
-4369 -4382 0
-4369 -4383 0
-4370 -4371 0
-4370 -4372 0
-4370 -4373 0
-4370 -4374 0
-4370 -4375 0
-4370 -4376 0
-4370 -4377 0
-4370 -4378 0
-4370 -4379 0
-4370 -4380 0
-4370 -4381 0
-4370 -4382 0
-4370 -4383 0
-4371 -4372 0
-4371 -4373 0
-4371 -4374 0
-4371 -4375 0
-4371 -4376 0
-4371 -4377 0
-4371 -4378 0
-4371 -4379 0
-4371 -4380 0
-4371 -4381 0
-4371 -4382 0
-4371 -4383 0
-4372 -4373 0
-4372 -4374 0
-4372 -4375 0
-4372 -4376 0
-4372 -4377 0
-4372 -4378 0
-4372 -4379 0
-4372 -4380 0
-4372 -4381 0
-4372 -4382 0
-4372 -4383 0
-4373 -4374 0
-4373 -4375 0
-4373 -4376 0
-4373 -4377 0
-4373 -4378 0
-4373 -4379 0
-4373 -4380 0
-4373 -4381 0
-4373 -4382 0
-4373 -4383 0
-4374 -4375 0
-4374 -4376 0
-4374 -4377 0
-4374 -4378 0
-4374 -4379 0
-4374 -4380 0
-4374 -4381 0
-4374 -4382 0
-4374 -4383 0
-4375 -4376 0
-4375 -4377 0
-4375 -4378 0
-4375 -4379 0
-4375 -4380 0
-4375 -4381 0
-4375 -4382 0
-4375 -4383 0
-4376 -4377 0
-4376 -4378 0
-4376 -4379 0
-4376 -4380 0
-4376 -4381 0
-4376 -4382 0
-4376 -4383 0
-4377 -4378 0
-4377 -4379 0
-4377 -4380 0
-4377 -4381 0
-4377 -4382 0
-4377 -4383 0
-4378 -4379 0
-4378 -4380 0
-4378 -4381 0
-4378 -4382 0
-4378 -4383 0
-4379 -4380 0
-4379 -4381 0
-4379 -4382 0
-4379 -4383 0
-4380 -4381 0
-4380 -4382 0
-4380 -4383 0
-4381 -4382 0
-4381 -4383 0
-4382 -4383 0
